
Gurobi 11.0.3 (mac64[arm], gurobi_cl) logging started Wed Feb 26 09:28:51 2025

Set parameter Username
Set parameter LogFile to value "output/gurobi_ilp.log"
Using license file /Users/aaronslobodin/gurobi.lic
Academic license - for non-commercial use only - expires 2025-12-30

Gurobi Optimizer version 11.0.3 build v11.0.3rc0 (mac64[arm] - Darwin 24.2.0 24C101)
Copyright (c) 2024, Gurobi Optimization, LLC

Read LP format model from file /var/folders/xx/fsz3wvqx27n46ckqdt6dl4gm0000gn/T/e32b095a1c2e4a3383d1fdbaf911562c-pulp.lp
Reading time = 0.00 seconds
OBJ: 113 rows, 77 columns, 716 nonzeros

CPU model: Apple M1 Pro
Thread count: 10 physical cores, 10 logical processors, using up to 10 threads

Optimize a model with 113 rows, 77 columns and 716 nonzeros
Model fingerprint: 0x6fe40696
Variable types: 1 continuous, 76 integer (70 binary)
Coefficient statistics:
  Matrix range     [5e-01, 6e+00]
  Objective range  [1e+00, 1e+00]
  Bounds range     [1e+00, 1e+00]
  RHS range        [1e+00, 2e+01]
Presolve removed 3 rows and 11 columns
Presolve time: 0.00s
Presolved: 110 rows, 66 columns, 592 nonzeros
Variable types: 0 continuous, 66 integer (64 binary)

Root relaxation: objective 0.000000e+00, 15 iterations, 0.00 seconds (0.00 work units)

    Nodes    |    Current Node    |     Objective Bounds      |     Work
 Expl Unexpl |  Obj  Depth IntInf | Incumbent    BestBd   Gap | It/Node Time

     0     0    0.00000    0    4          -    0.00000      -     -    0s
     0     0    0.00000    0    4          -    0.00000      -     -    0s
     0     0    0.00000    0    4          -    0.00000      -     -    0s
     0     0    0.00000    0    4          -    0.00000      -     -    0s
     0     0    0.00000    0    4          -    0.00000      -     -    0s
     0     0    0.00000    0    4          -    0.00000      -     -    0s
     0     2    0.00000    0    4          -    0.00000      -     -    0s

Cutting planes:
  Gomory: 1
  MIR: 3
  Zero half: 2

Explored 26 nodes (420 simplex iterations) in 0.03 seconds (0.02 work units)
Thread count was 10 (of 10 available processors)

Solution count 0

Model is infeasible
Best objective -, best bound -, gap -

Unable to retrieve attribute 'X'

